\* Built LP *\
Minimize
OBJ: __dummy
Subject To
_C1: var_0_0_00 + var_0_0_01 + var_0_0_02 + var_0_0_03 + var_0_0_04
 + var_0_0_05 + var_0_0_06 + var_0_0_07 + var_0_0_08 + var_0_0_09 + var_0_0_10
 + var_0_0_11 + var_0_1_00 + var_0_1_01 + var_0_1_02 + var_0_1_03 + var_0_1_04
 + var_0_1_05 + var_0_1_06 + var_0_1_07 + var_0_1_08 + var_0_1_09 + var_0_1_10
 + var_0_1_11 = 1
_C10: var_3_0_09 + var_3_0_10 + var_3_0_11 + var_3_1_09 + var_3_1_10
 + var_3_1_11 = 1
_C100: 10 var_3_0_11 + 10 var_3_1_11 <= 10
_C101: 5 var_4_0_00 + 5 var_4_1_00 <= 10
_C102: 5 var_4_0_01 + 5 var_4_1_01 <= 10
_C103: 5 var_4_0_02 + 5 var_4_1_02 <= 10
_C104: 5 var_4_0_03 + 5 var_4_1_03 <= 10
_C105: 5 var_4_0_04 + 5 var_4_1_04 <= 10
_C106: 5 var_4_0_05 + 5 var_4_1_05 <= 10
_C107: 5 var_4_0_06 + 5 var_4_1_06 <= 10
_C108: 5 var_4_0_07 + 5 var_4_1_07 <= 10
_C109: 5 var_4_0_08 + 5 var_4_1_08 <= 10
_C11: var_4_0_00 + var_4_0_01 + var_4_1_00 + var_4_1_01 = 1
_C110: 5 var_4_0_09 + 5 var_4_1_09 <= 10
_C111: 5 var_4_0_10 + 5 var_4_1_10 <= 10
_C112: 5 var_4_0_11 + 5 var_4_1_11 <= 10
_C113: 5 var_5_0_00 + 5 var_5_1_00 <= 10
_C114: 5 var_5_0_01 + 5 var_5_1_01 <= 10
_C115: 5 var_5_0_02 + 5 var_5_1_02 <= 10
_C116: 5 var_5_0_03 + 5 var_5_1_03 <= 10
_C117: 5 var_5_0_04 + 5 var_5_1_04 <= 10
_C118: 5 var_5_0_05 + 5 var_5_1_05 <= 10
_C119: 5 var_5_0_06 + 5 var_5_1_06 <= 10
_C12: var_4_0_02 + var_4_0_03 + var_4_1_02 + var_4_1_03 = 1
_C120: 5 var_5_0_07 + 5 var_5_1_07 <= 10
_C121: 5 var_5_0_08 + 5 var_5_1_08 <= 10
_C122: 5 var_5_0_09 + 5 var_5_1_09 <= 10
_C123: 5 var_5_0_10 + 5 var_5_1_10 <= 10
_C124: 5 var_5_0_11 + 5 var_5_1_11 <= 10
_C13: var_4_0_04 + var_4_0_05 + var_4_1_04 + var_4_1_05 = 1
_C14: var_4_0_06 + var_4_0_07 + var_4_1_06 + var_4_1_07 = 1
_C15: var_4_0_08 + var_4_0_09 + var_4_1_08 + var_4_1_09 = 1
_C16: var_4_0_10 + var_4_0_11 + var_4_1_10 + var_4_1_11 = 1
_C17: var_5_0_00 + var_5_1_00 = 1
_C18: var_5_0_01 + var_5_1_01 = 1
_C19: var_5_0_02 + var_5_1_02 = 1
_C2: var_1_0_00 + var_1_0_01 + var_1_0_02 + var_1_0_03 + var_1_0_04
 + var_1_0_05 + var_1_1_00 + var_1_1_01 + var_1_1_02 + var_1_1_03 + var_1_1_04
 + var_1_1_05 = 1
_C20: var_5_0_03 + var_5_1_03 = 1
_C21: var_5_0_04 + var_5_1_04 = 1
_C22: var_5_0_05 + var_5_1_05 = 1
_C23: var_5_0_06 + var_5_1_06 = 1
_C24: var_5_0_07 + var_5_1_07 = 1
_C25: var_5_0_08 + var_5_1_08 = 1
_C26: var_5_0_09 + var_5_1_09 = 1
_C27: var_5_0_10 + var_5_1_10 = 1
_C28: var_5_0_11 + var_5_1_11 = 1
_C29: 40 var_0_0_00 + 20 var_1_0_00 + 10 var_2_0_00 + 10 var_3_0_00
 + 5 var_4_0_00 + 5 var_5_0_00 <= 10
_C3: var_1_0_06 + var_1_0_07 + var_1_0_08 + var_1_0_09 + var_1_0_10
 + var_1_0_11 + var_1_1_06 + var_1_1_07 + var_1_1_08 + var_1_1_09 + var_1_1_10
 + var_1_1_11 = 1
_C30: 40 var_0_0_01 + 20 var_1_0_01 + 10 var_2_0_01 + 10 var_3_0_01
 + 5 var_4_0_01 + 5 var_5_0_01 <= 10
_C31: 40 var_0_0_02 + 20 var_1_0_02 + 10 var_2_0_02 + 10 var_3_0_02
 + 5 var_4_0_02 + 5 var_5_0_02 <= 10
_C32: 40 var_0_0_03 + 20 var_1_0_03 + 10 var_2_0_03 + 10 var_3_0_03
 + 5 var_4_0_03 + 5 var_5_0_03 <= 10
_C33: 40 var_0_0_04 + 20 var_1_0_04 + 10 var_2_0_04 + 10 var_3_0_04
 + 5 var_4_0_04 + 5 var_5_0_04 <= 10
_C34: 40 var_0_0_05 + 20 var_1_0_05 + 10 var_2_0_05 + 10 var_3_0_05
 + 5 var_4_0_05 + 5 var_5_0_05 <= 10
_C35: 40 var_0_0_06 + 20 var_1_0_06 + 10 var_2_0_06 + 10 var_3_0_06
 + 5 var_4_0_06 + 5 var_5_0_06 <= 10
_C36: 40 var_0_0_07 + 20 var_1_0_07 + 10 var_2_0_07 + 10 var_3_0_07
 + 5 var_4_0_07 + 5 var_5_0_07 <= 10
_C37: 40 var_0_0_08 + 20 var_1_0_08 + 10 var_2_0_08 + 10 var_3_0_08
 + 5 var_4_0_08 + 5 var_5_0_08 <= 10
_C38: 40 var_0_0_09 + 20 var_1_0_09 + 10 var_2_0_09 + 10 var_3_0_09
 + 5 var_4_0_09 + 5 var_5_0_09 <= 10
_C39: 40 var_0_0_10 + 20 var_1_0_10 + 10 var_2_0_10 + 10 var_3_0_10
 + 5 var_4_0_10 + 5 var_5_0_10 <= 10
_C4: var_2_0_00 + var_2_0_01 + var_2_0_02 + var_2_0_03 + var_2_1_00
 + var_2_1_01 + var_2_1_02 + var_2_1_03 = 1
_C40: 40 var_0_0_11 + 20 var_1_0_11 + 10 var_2_0_11 + 10 var_3_0_11
 + 5 var_4_0_11 + 5 var_5_0_11 <= 10
_C41: 40 var_0_1_00 + 20 var_1_1_00 + 10 var_2_1_00 + 10 var_3_1_00
 + 5 var_4_1_00 + 5 var_5_1_00 <= 10
_C42: 40 var_0_1_01 + 20 var_1_1_01 + 10 var_2_1_01 + 10 var_3_1_01
 + 5 var_4_1_01 + 5 var_5_1_01 <= 10
_C43: 40 var_0_1_02 + 20 var_1_1_02 + 10 var_2_1_02 + 10 var_3_1_02
 + 5 var_4_1_02 + 5 var_5_1_02 <= 10
_C44: 40 var_0_1_03 + 20 var_1_1_03 + 10 var_2_1_03 + 10 var_3_1_03
 + 5 var_4_1_03 + 5 var_5_1_03 <= 10
_C45: 40 var_0_1_04 + 20 var_1_1_04 + 10 var_2_1_04 + 10 var_3_1_04
 + 5 var_4_1_04 + 5 var_5_1_04 <= 10
_C46: 40 var_0_1_05 + 20 var_1_1_05 + 10 var_2_1_05 + 10 var_3_1_05
 + 5 var_4_1_05 + 5 var_5_1_05 <= 10
_C47: 40 var_0_1_06 + 20 var_1_1_06 + 10 var_2_1_06 + 10 var_3_1_06
 + 5 var_4_1_06 + 5 var_5_1_06 <= 10
_C48: 40 var_0_1_07 + 20 var_1_1_07 + 10 var_2_1_07 + 10 var_3_1_07
 + 5 var_4_1_07 + 5 var_5_1_07 <= 10
_C49: 40 var_0_1_08 + 20 var_1_1_08 + 10 var_2_1_08 + 10 var_3_1_08
 + 5 var_4_1_08 + 5 var_5_1_08 <= 10
_C5: var_2_0_04 + var_2_0_05 + var_2_0_06 + var_2_0_07 + var_2_1_04
 + var_2_1_05 + var_2_1_06 + var_2_1_07 = 1
_C50: 40 var_0_1_09 + 20 var_1_1_09 + 10 var_2_1_09 + 10 var_3_1_09
 + 5 var_4_1_09 + 5 var_5_1_09 <= 10
_C51: 40 var_0_1_10 + 20 var_1_1_10 + 10 var_2_1_10 + 10 var_3_1_10
 + 5 var_4_1_10 + 5 var_5_1_10 <= 10
_C52: 40 var_0_1_11 + 20 var_1_1_11 + 10 var_2_1_11 + 10 var_3_1_11
 + 5 var_4_1_11 + 5 var_5_1_11 <= 10
_C53: 40 var_0_0_00 + 40 var_0_1_00 <= 10
_C54: 40 var_0_0_01 + 40 var_0_1_01 <= 10
_C55: 40 var_0_0_02 + 40 var_0_1_02 <= 10
_C56: 40 var_0_0_03 + 40 var_0_1_03 <= 10
_C57: 40 var_0_0_04 + 40 var_0_1_04 <= 10
_C58: 40 var_0_0_05 + 40 var_0_1_05 <= 10
_C59: 40 var_0_0_06 + 40 var_0_1_06 <= 10
_C6: var_2_0_08 + var_2_0_09 + var_2_0_10 + var_2_0_11 + var_2_1_08
 + var_2_1_09 + var_2_1_10 + var_2_1_11 = 1
_C60: 40 var_0_0_07 + 40 var_0_1_07 <= 10
_C61: 40 var_0_0_08 + 40 var_0_1_08 <= 10
_C62: 40 var_0_0_09 + 40 var_0_1_09 <= 10
_C63: 40 var_0_0_10 + 40 var_0_1_10 <= 10
_C64: 40 var_0_0_11 + 40 var_0_1_11 <= 10
_C65: 20 var_1_0_00 + 20 var_1_1_00 <= 10
_C66: 20 var_1_0_01 + 20 var_1_1_01 <= 10
_C67: 20 var_1_0_02 + 20 var_1_1_02 <= 10
_C68: 20 var_1_0_03 + 20 var_1_1_03 <= 10
_C69: 20 var_1_0_04 + 20 var_1_1_04 <= 10
_C7: var_3_0_00 + var_3_0_01 + var_3_0_02 + var_3_1_00 + var_3_1_01
 + var_3_1_02 = 1
_C70: 20 var_1_0_05 + 20 var_1_1_05 <= 10
_C71: 20 var_1_0_06 + 20 var_1_1_06 <= 10
_C72: 20 var_1_0_07 + 20 var_1_1_07 <= 10
_C73: 20 var_1_0_08 + 20 var_1_1_08 <= 10
_C74: 20 var_1_0_09 + 20 var_1_1_09 <= 10
_C75: 20 var_1_0_10 + 20 var_1_1_10 <= 10
_C76: 20 var_1_0_11 + 20 var_1_1_11 <= 10
_C77: 10 var_2_0_00 + 10 var_2_1_00 <= 10
_C78: 10 var_2_0_01 + 10 var_2_1_01 <= 10
_C79: 10 var_2_0_02 + 10 var_2_1_02 <= 10
_C8: var_3_0_03 + var_3_0_04 + var_3_0_05 + var_3_1_03 + var_3_1_04
 + var_3_1_05 = 1
_C80: 10 var_2_0_03 + 10 var_2_1_03 <= 10
_C81: 10 var_2_0_04 + 10 var_2_1_04 <= 10
_C82: 10 var_2_0_05 + 10 var_2_1_05 <= 10
_C83: 10 var_2_0_06 + 10 var_2_1_06 <= 10
_C84: 10 var_2_0_07 + 10 var_2_1_07 <= 10
_C85: 10 var_2_0_08 + 10 var_2_1_08 <= 10
_C86: 10 var_2_0_09 + 10 var_2_1_09 <= 10
_C87: 10 var_2_0_10 + 10 var_2_1_10 <= 10
_C88: 10 var_2_0_11 + 10 var_2_1_11 <= 10
_C89: 10 var_3_0_00 + 10 var_3_1_00 <= 10
_C9: var_3_0_06 + var_3_0_07 + var_3_0_08 + var_3_1_06 + var_3_1_07
 + var_3_1_08 = 1
_C90: 10 var_3_0_01 + 10 var_3_1_01 <= 10
_C91: 10 var_3_0_02 + 10 var_3_1_02 <= 10
_C92: 10 var_3_0_03 + 10 var_3_1_03 <= 10
_C93: 10 var_3_0_04 + 10 var_3_1_04 <= 10
_C94: 10 var_3_0_05 + 10 var_3_1_05 <= 10
_C95: 10 var_3_0_06 + 10 var_3_1_06 <= 10
_C96: 10 var_3_0_07 + 10 var_3_1_07 <= 10
_C97: 10 var_3_0_08 + 10 var_3_1_08 <= 10
_C98: 10 var_3_0_09 + 10 var_3_1_09 <= 10
_C99: 10 var_3_0_10 + 10 var_3_1_10 <= 10
Bounds
__dummy = 0
var_0_0_00 <= 1
var_0_0_01 <= 1
var_0_0_02 <= 1
var_0_0_03 <= 1
var_0_0_04 <= 1
var_0_0_05 <= 1
var_0_0_06 <= 1
var_0_0_07 <= 1
var_0_0_08 <= 1
var_0_0_09 <= 1
var_0_0_10 <= 1
var_0_0_11 <= 1
var_0_1_00 <= 1
var_0_1_01 <= 1
var_0_1_02 <= 1
var_0_1_03 <= 1
var_0_1_04 <= 1
var_0_1_05 <= 1
var_0_1_06 <= 1
var_0_1_07 <= 1
var_0_1_08 <= 1
var_0_1_09 <= 1
var_0_1_10 <= 1
var_0_1_11 <= 1
var_1_0_00 <= 1
var_1_0_01 <= 1
var_1_0_02 <= 1
var_1_0_03 <= 1
var_1_0_04 <= 1
var_1_0_05 <= 1
var_1_0_06 <= 1
var_1_0_07 <= 1
var_1_0_08 <= 1
var_1_0_09 <= 1
var_1_0_10 <= 1
var_1_0_11 <= 1
var_1_1_00 <= 1
var_1_1_01 <= 1
var_1_1_02 <= 1
var_1_1_03 <= 1
var_1_1_04 <= 1
var_1_1_05 <= 1
var_1_1_06 <= 1
var_1_1_07 <= 1
var_1_1_08 <= 1
var_1_1_09 <= 1
var_1_1_10 <= 1
var_1_1_11 <= 1
var_2_0_00 <= 1
var_2_0_01 <= 1
var_2_0_02 <= 1
var_2_0_03 <= 1
var_2_0_04 <= 1
var_2_0_05 <= 1
var_2_0_06 <= 1
var_2_0_07 <= 1
var_2_0_08 <= 1
var_2_0_09 <= 1
var_2_0_10 <= 1
var_2_0_11 <= 1
var_2_1_00 <= 1
var_2_1_01 <= 1
var_2_1_02 <= 1
var_2_1_03 <= 1
var_2_1_04 <= 1
var_2_1_05 <= 1
var_2_1_06 <= 1
var_2_1_07 <= 1
var_2_1_08 <= 1
var_2_1_09 <= 1
var_2_1_10 <= 1
var_2_1_11 <= 1
var_3_0_00 <= 1
var_3_0_01 <= 1
var_3_0_02 <= 1
var_3_0_03 <= 1
var_3_0_04 <= 1
var_3_0_05 <= 1
var_3_0_06 <= 1
var_3_0_07 <= 1
var_3_0_08 <= 1
var_3_0_09 <= 1
var_3_0_10 <= 1
var_3_0_11 <= 1
var_3_1_00 <= 1
var_3_1_01 <= 1
var_3_1_02 <= 1
var_3_1_03 <= 1
var_3_1_04 <= 1
var_3_1_05 <= 1
var_3_1_06 <= 1
var_3_1_07 <= 1
var_3_1_08 <= 1
var_3_1_09 <= 1
var_3_1_10 <= 1
var_3_1_11 <= 1
var_4_0_00 <= 1
var_4_0_01 <= 1
var_4_0_02 <= 1
var_4_0_03 <= 1
var_4_0_04 <= 1
var_4_0_05 <= 1
var_4_0_06 <= 1
var_4_0_07 <= 1
var_4_0_08 <= 1
var_4_0_09 <= 1
var_4_0_10 <= 1
var_4_0_11 <= 1
var_4_1_00 <= 1
var_4_1_01 <= 1
var_4_1_02 <= 1
var_4_1_03 <= 1
var_4_1_04 <= 1
var_4_1_05 <= 1
var_4_1_06 <= 1
var_4_1_07 <= 1
var_4_1_08 <= 1
var_4_1_09 <= 1
var_4_1_10 <= 1
var_4_1_11 <= 1
var_5_0_00 <= 1
var_5_0_01 <= 1
var_5_0_02 <= 1
var_5_0_03 <= 1
var_5_0_04 <= 1
var_5_0_05 <= 1
var_5_0_06 <= 1
var_5_0_07 <= 1
var_5_0_08 <= 1
var_5_0_09 <= 1
var_5_0_10 <= 1
var_5_0_11 <= 1
var_5_1_00 <= 1
var_5_1_01 <= 1
var_5_1_02 <= 1
var_5_1_03 <= 1
var_5_1_04 <= 1
var_5_1_05 <= 1
var_5_1_06 <= 1
var_5_1_07 <= 1
var_5_1_08 <= 1
var_5_1_09 <= 1
var_5_1_10 <= 1
var_5_1_11 <= 1
End
